(declare-const mem_11 Int)
(declare-const SIZE Int)
(declare-const menor Int)
(declare-const mem_11@pos Int)
(declare-const array@pos Int)
(declare-const j Int)
(declare-const array@width Int)
(declare-const array Int)
(declare-const mem_11@width Int)
(assert (exists
         ((|mem_11@width'?1| Int) (|mem_11@pos'?2| Int) (|mem_11'?3| Int)
            (|menor'?4| Int) (|j'?5| Int) (tr?6 Int) (tr?7 Int)
            (phi_mem_11@width?8 Int) (phi_mem_11@pos?9 Int)
            (phi_mem_11?10 Int) (phi_menor?11 Int) (tr?12 Int))
         (and (= array@pos 0) (<= (+ (- array@width) 1) 0) (<= (- j) 0)
                (<= (+ (- SIZE) 1) 0) (= array@pos 0)
                (= (+ array@width -4) 0) (= (+ SIZE -1) 0)
                (<= (+ (- SIZE) j 1) 0)
                (or (and (<= (+ (- tr?12) menor 1) 0)
                           (= (+ (- phi_menor?11) menor) 0)
                           (= (+ (- phi_mem_11?10) mem_11) 0)
                           (= (+ (- phi_mem_11@pos?9) mem_11@pos) 0)
                           (= (+ (- phi_mem_11@width?8) mem_11@width) 0))
                      (and (<= (+ tr?7 (- menor)) 0)
                             (= (+ tr?6 (- phi_menor?11)) 0)
                             (= (+ array (- phi_mem_11?10) (* 4 j)) 0)
                             (= (+ (- phi_mem_11@pos?9) (* 4 j) array@pos) 0)
                             (= (+ (- phi_mem_11@width?8) array@width) 0)))
                (= (+ |mem_11@width'?1| (- phi_mem_11@width?8)) 0)
                (= (+ |mem_11@pos'?2| (- phi_mem_11@pos?9)) 0)
                (= (+ |mem_11'?3| (- phi_mem_11?10)) 0)
                (= (+ |menor'?4| (- phi_menor?11)) 0)
                (= (+ |j'?5| (- j) -1) 0))))
(check-sat)
